NAME: random problem
TYPE: MTSP
COMMENT: MTSP problem for MRS UAV summer school
DIMENSION: 20
NUMBER_OF_ROBOTS: 2
START_TARGET_INDEXES: 1, 2
NEIGHBORHOOD_RADIUS: 2
EDGE_WEIGHT_TYPE: EUC_2D
NODE_COORD_SECTION
1 15.0 -21.0
2 -5.0 -25.0
3 23.0 8.1
4 -13.3 -31.8
5 -29.0 -11.2
6 2.4 14.0
7 7.1 -14.3
8 -32.8 -1.3
9 10.6 -9.1
10 -12.7 -8.1
11 -27.2 -23.5
12 -7.9 -18.0
13 22.3 7.4
14 -0.9 3.7
15 -20.1 -23.4
16 -2.1 -7.0
17 10.8 -17.6
18 10.6 -24.6
19 -32.2 -24.8
20 15.6 2.5
EOF
